p cnf 612 1670
-2 4 51 0
2 4 -51 0
-2 -4 -51 0
2 -4 51 0
-7 -8 52 0
7 -8 -52 0
-7 8 -52 0
7 8 52 0
9 -10 53 0
-9 -10 -53 0
9 10 -53 0
-9 10 53 0
-14 16 54 0
14 16 -54 0
-14 -16 -54 0
14 -16 54 0
17 18 55 0
-17 18 -55 0
17 -18 -55 0
-17 -18 55 0
-21 -24 56 0
21 -24 -56 0
-21 24 -56 0
21 24 56 0
-30 -32 57 0
30 -32 -57 0
-30 32 -57 0
30 32 57 0
-33 34 58 0
33 34 -58 0
-33 -34 -58 0
33 -34 58 0
36 -38 59 0
-36 -38 -59 0
36 38 -59 0
-36 38 59 0
-39 45 60 0
39 45 -60 0
-39 -45 -60 0
39 -45 60 0
-47 -49 61 0
47 -49 -61 0
-47 49 -61 0
47 49 61 0
50 -51 62 0
-50 -51 -62 0
50 51 -62 0
-50 51 62 0
52 -53 63 0
-52 -53 -63 0
52 53 -63 0
-52 53 63 0
54 -55 64 0
-54 -55 -64 0
54 55 -64 0
-54 55 64 0
56 -57 65 0
-56 -57 -65 0
56 57 -65 0
-56 57 65 0
58 -59 66 0
-58 -59 -66 0
58 59 -66 0
-58 59 66 0
60 -61 67 0
-60 -61 -67 0
60 61 -67 0
-60 61 67 0
62 -63 68 0
-62 -63 -68 0
62 63 -68 0
-62 63 68 0
64 -65 69 0
-64 -65 -69 0
64 65 -69 0
-64 65 69 0
66 -67 70 0
-66 -67 -70 0
66 67 -70 0
-66 67 70 0
-68 -69 70 0
68 -69 -70 0
-68 69 -70 0
68 69 70 0
4 5 71 0
-4 5 -71 0
4 -5 -71 0
-4 -5 71 0
6 -7 72 0
-6 -7 -72 0
6 7 -72 0
-6 7 72 0
8 -9 73 0
-8 -9 -73 0
8 9 -73 0
-8 9 73 0
10 14 74 0
-10 14 -74 0
10 -14 -74 0
-10 -14 74 0
-17 -18 75 0
17 -18 -75 0
-17 18 -75 0
17 18 75 0
19 20 76 0
-19 20 -76 0
19 -20 -76 0
-19 -20 76 0
22 24 77 0
-22 24 -77 0
22 -24 -77 0
-22 -24 77 0
25 -27 78 0
-25 -27 -78 0
25 27 -78 0
-25 27 78 0
-28 -29 79 0
28 -29 -79 0
-28 29 -79 0
28 29 79 0
30 -32 80 0
-30 -32 -80 0
30 32 -80 0
-30 32 80 0
33 34 81 0
-33 34 -81 0
33 -34 -81 0
-33 -34 81 0
35 36 82 0
-35 36 -82 0
35 -36 -82 0
-35 -36 82 0
42 -44 83 0
-42 -44 -83 0
42 44 -83 0
-42 44 83 0
47 49 84 0
-47 49 -84 0
47 -49 -84 0
-47 -49 84 0
71 -72 85 0
-71 -72 -85 0
71 72 -85 0
-71 72 85 0
73 -74 86 0
-73 -74 -86 0
73 74 -86 0
-73 74 86 0
75 -76 87 0
-75 -76 -87 0
75 76 -87 0
-75 76 87 0
77 -78 88 0
-77 -78 -88 0
77 78 -88 0
-77 78 88 0
79 -80 89 0
-79 -80 -89 0
79 80 -89 0
-79 80 89 0
81 -82 90 0
-81 -82 -90 0
81 82 -90 0
-81 82 90 0
83 -84 91 0
-83 -84 -91 0
83 84 -91 0
-83 84 91 0
85 -86 92 0
-85 -86 -92 0
85 86 -92 0
-85 86 92 0
87 -88 93 0
-87 -88 -93 0
87 88 -93 0
-87 88 93 0
89 -90 94 0
-89 -90 -94 0
89 90 -94 0
-89 90 94 0
91 -92 95 0
-91 -92 -95 0
91 92 -95 0
-91 92 95 0
93 -94 96 0
-93 -94 -96 0
93 94 -96 0
-93 94 96 0
95 96 0
-95 -96 0
-1 2 97 0
1 2 -97 0
-1 -2 -97 0
1 -2 97 0
3 9 98 0
-3 9 -98 0
3 -9 -98 0
-3 -9 98 0
10 -14 99 0
-10 -14 -99 0
10 14 -99 0
-10 14 99 0
-16 -18 100 0
16 -18 -100 0
-16 18 -100 0
16 18 100 0
-21 24 101 0
21 24 -101 0
-21 -24 -101 0
21 -24 101 0
26 27 102 0
-26 27 -102 0
26 -27 -102 0
-26 -27 102 0
-34 38 103 0
34 38 -103 0
-34 -38 -103 0
34 -38 103 0
-39 -40 104 0
39 -40 -104 0
-39 40 -104 0
39 40 104 0
41 -43 105 0
-41 -43 -105 0
41 43 -105 0
-41 43 105 0
44 45 106 0
-44 45 -106 0
44 -45 -106 0
-44 -45 106 0
48 -49 107 0
-48 -49 -107 0
48 49 -107 0
-48 49 107 0
97 -98 108 0
-97 -98 -108 0
97 98 -108 0
-97 98 108 0
99 -100 109 0
-99 -100 -109 0
99 100 -109 0
-99 100 109 0
101 -102 110 0
-101 -102 -110 0
101 102 -110 0
-101 102 110 0
103 -104 111 0
-103 -104 -111 0
103 104 -111 0
-103 104 111 0
105 -106 112 0
-105 -106 -112 0
105 106 -112 0
-105 106 112 0
107 -108 113 0
-107 -108 -113 0
107 108 -113 0
-107 108 113 0
109 -110 114 0
-109 -110 -114 0
109 110 -114 0
-109 110 114 0
111 -112 115 0
-111 -112 -115 0
111 112 -115 0
-111 112 115 0
-113 -114 115 0
113 -114 -115 0
-113 114 -115 0
113 114 115 0
1 2 116 0
-1 2 -116 0
1 -2 -116 0
-1 -2 116 0
-4 -6 117 0
4 -6 -117 0
-4 6 -117 0
4 6 117 0
-12 -15 118 0
12 -15 -118 0
-12 15 -118 0
12 15 118 0
17 19 119 0
-17 19 -119 0
17 -19 -119 0
-17 -19 119 0
-20 21 120 0
20 21 -120 0
-20 -21 -120 0
20 -21 120 0
-24 25 121 0
24 25 -121 0
-24 -25 -121 0
24 -25 121 0
27 -28 122 0
-27 -28 -122 0
27 28 -122 0
-27 28 122 0
29 -31 123 0
-29 -31 -123 0
29 31 -123 0
-29 31 123 0
33 -35 124 0
-33 -35 -124 0
33 35 -124 0
-33 35 124 0
39 -45 125 0
-39 -45 -125 0
39 45 -125 0
-39 45 125 0
115 -116 126 0
-115 -116 -126 0
115 116 -126 0
-115 116 126 0
117 -118 127 0
-117 -118 -127 0
117 118 -127 0
-117 118 127 0
119 -120 128 0
-119 -120 -128 0
119 120 -128 0
-119 120 128 0
121 -122 129 0
-121 -122 -129 0
121 122 -129 0
-121 122 129 0
123 -124 130 0
-123 -124 -130 0
123 124 -130 0
-123 124 130 0
125 -126 131 0
-125 -126 -131 0
125 126 -131 0
-125 126 131 0
127 -128 132 0
-127 -128 -132 0
127 128 -132 0
-127 128 132 0
129 -130 133 0
-129 -130 -133 0
129 130 -133 0
-129 130 133 0
-131 -132 133 0
131 -132 -133 0
-131 132 -133 0
131 132 133 0
-1 2 134 0
1 2 -134 0
-1 -2 -134 0
1 -2 134 0
-3 6 135 0
3 6 -135 0
-3 -6 -135 0
3 -6 135 0
7 9 136 0
-7 9 -136 0
7 -9 -136 0
-7 -9 136 0
-10 -13 137 0
10 -13 -137 0
-10 13 -137 0
10 13 137 0
-14 15 138 0
14 15 -138 0
-14 -15 -138 0
14 -15 138 0
17 19 139 0
-17 19 -139 0
17 -19 -139 0
-17 -19 139 0
-20 -21 140 0
20 -21 -140 0
-20 21 -140 0
20 21 140 0
22 24 141 0
-22 24 -141 0
22 -24 -141 0
-22 -24 141 0
26 -27 142 0
-26 -27 -142 0
26 27 -142 0
-26 27 142 0
-32 34 143 0
32 34 -143 0
-32 -34 -143 0
32 -34 143 0
-35 -36 144 0
35 -36 -144 0
-35 36 -144 0
35 36 144 0
37 -39 145 0
-37 -39 -145 0
37 39 -145 0
-37 39 145 0
-40 -42 146 0
40 -42 -146 0
-40 42 -146 0
40 42 146 0
133 -134 147 0
-133 -134 -147 0
133 134 -147 0
-133 134 147 0
135 -136 148 0
-135 -136 -148 0
135 136 -148 0
-135 136 148 0
137 -138 149 0
-137 -138 -149 0
137 138 -149 0
-137 138 149 0
139 -140 150 0
-139 -140 -150 0
139 140 -150 0
-139 140 150 0
141 -142 151 0
-141 -142 -151 0
141 142 -151 0
-141 142 151 0
143 -144 152 0
-143 -144 -152 0
143 144 -152 0
-143 144 152 0
145 -146 153 0
-145 -146 -153 0
145 146 -153 0
-145 146 153 0
147 -148 154 0
-147 -148 -154 0
147 148 -154 0
-147 148 154 0
149 -150 155 0
-149 -150 -155 0
149 150 -155 0
-149 150 155 0
151 -152 156 0
-151 -152 -156 0
151 152 -156 0
-151 152 156 0
153 -154 157 0
-153 -154 -157 0
153 154 -157 0
-153 154 157 0
155 -156 158 0
-155 -156 -158 0
155 156 -158 0
-155 156 158 0
157 158 0
-157 -158 0
-1 2 159 0
1 2 -159 0
-1 -2 -159 0
1 -2 159 0
3 -5 160 0
-3 -5 -160 0
3 5 -160 0
-3 5 160 0
6 7 161 0
-6 7 -161 0
6 -7 -161 0
-6 -7 161 0
-9 11 162 0
9 11 -162 0
-9 -11 -162 0
9 -11 162 0
-12 -15 163 0
12 -15 -163 0
-12 15 -163 0
12 15 163 0
-21 -22 164 0
21 -22 -164 0
-21 22 -164 0
21 22 164 0
23 24 165 0
-23 24 -165 0
23 -24 -165 0
-23 -24 165 0
-25 29 166 0
25 29 -166 0
-25 -29 -166 0
25 -29 166 0
-30 32 167 0
30 32 -167 0
-30 -32 -167 0
30 -32 167 0
34 -35 168 0
-34 -35 -168 0
34 35 -168 0
-34 35 168 0
-39 -44 169 0
39 -44 -169 0
-39 44 -169 0
39 44 169 0
-45 50 170 0
45 50 -170 0
-45 -50 -170 0
45 -50 170 0
159 -160 171 0
-159 -160 -171 0
159 160 -171 0
-159 160 171 0
161 -162 172 0
-161 -162 -172 0
161 162 -172 0
-161 162 172 0
163 -164 173 0
-163 -164 -173 0
163 164 -173 0
-163 164 173 0
165 -166 174 0
-165 -166 -174 0
165 166 -174 0
-165 166 174 0
167 -168 175 0
-167 -168 -175 0
167 168 -175 0
-167 168 175 0
169 -170 176 0
-169 -170 -176 0
169 170 -176 0
-169 170 176 0
171 -172 177 0
-171 -172 -177 0
171 172 -177 0
-171 172 177 0
173 -174 178 0
-173 -174 -178 0
173 174 -178 0
-173 174 178 0
175 -176 179 0
-175 -176 -179 0
175 176 -179 0
-175 176 179 0
-177 -178 179 0
177 -178 -179 0
-177 178 -179 0
177 178 179 0
-1 2 180 0
1 2 -180 0
-1 -2 -180 0
1 -2 180 0
5 10 181 0
-5 10 -181 0
5 -10 -181 0
-5 -10 181 0
11 13 182 0
-11 13 -182 0
11 -13 -182 0
-11 -13 182 0
-15 17 183 0
15 17 -183 0
-15 -17 -183 0
15 -17 183 0
-18 -21 184 0
18 -21 -184 0
-18 21 -184 0
18 21 184 0
-23 27 185 0
23 27 -185 0
-23 -27 -185 0
23 -27 185 0
28 29 186 0
-28 29 -186 0
28 -29 -186 0
-28 -29 186 0
-30 33 187 0
30 33 -187 0
-30 -33 -187 0
30 -33 187 0
-34 35 188 0
34 35 -188 0
-34 -35 -188 0
34 -35 188 0
-37 -38 189 0
37 -38 -189 0
-37 38 -189 0
37 38 189 0
41 -43 190 0
-41 -43 -190 0
41 43 -190 0
-41 43 190 0
44 45 191 0
-44 45 -191 0
44 -45 -191 0
-44 -45 191 0
46 -48 192 0
-46 -48 -192 0
46 48 -192 0
-46 48 192 0
180 -181 193 0
-180 -181 -193 0
180 181 -193 0
-180 181 193 0
182 -183 194 0
-182 -183 -194 0
182 183 -194 0
-182 183 194 0
184 -185 195 0
-184 -185 -195 0
184 185 -195 0
-184 185 195 0
186 -187 196 0
-186 -187 -196 0
186 187 -196 0
-186 187 196 0
188 -189 197 0
-188 -189 -197 0
188 189 -197 0
-188 189 197 0
190 -191 198 0
-190 -191 -198 0
190 191 -198 0
-190 191 198 0
192 -193 199 0
-192 -193 -199 0
192 193 -199 0
-192 193 199 0
194 -195 200 0
-194 -195 -200 0
194 195 -200 0
-194 195 200 0
196 -197 201 0
-196 -197 -201 0
196 197 -201 0
-196 197 201 0
198 -199 202 0
-198 -199 -202 0
198 199 -202 0
-198 199 202 0
200 -201 203 0
-200 -201 -203 0
200 201 -203 0
-200 201 203 0
202 203 0
-202 -203 0
1 5 204 0
-1 5 -204 0
1 -5 -204 0
-1 -5 204 0
-6 10 205 0
6 10 -205 0
-6 -10 -205 0
6 -10 205 0
-11 -12 206 0
11 -12 -206 0
-11 12 -206 0
11 12 206 0
18 -20 207 0
-18 -20 -207 0
18 20 -207 0
-18 20 207 0
-21 -23 208 0
21 -23 -208 0
-21 23 -208 0
21 23 208 0
24 -25 209 0
-24 -25 -209 0
24 25 -209 0
-24 25 209 0
-27 -30 210 0
27 -30 -210 0
-27 30 -210 0
27 30 210 0
35 -36 211 0
-35 -36 -211 0
35 36 -211 0
-35 36 211 0
37 38 212 0
-37 38 -212 0
37 -38 -212 0
-37 -38 212 0
-40 -41 213 0
40 -41 -213 0
-40 41 -213 0
40 41 213 0
43 -44 214 0
-43 -44 -214 0
43 44 -214 0
-43 44 214 0
45 46 215 0
-45 46 -215 0
45 -46 -215 0
-45 -46 215 0
-47 -50 216 0
47 -50 -216 0
-47 50 -216 0
47 50 216 0
204 -205 217 0
-204 -205 -217 0
204 205 -217 0
-204 205 217 0
206 -207 218 0
-206 -207 -218 0
206 207 -218 0
-206 207 218 0
208 -209 219 0
-208 -209 -219 0
208 209 -219 0
-208 209 219 0
210 -211 220 0
-210 -211 -220 0
210 211 -220 0
-210 211 220 0
212 -213 221 0
-212 -213 -221 0
212 213 -221 0
-212 213 221 0
214 -215 222 0
-214 -215 -222 0
214 215 -222 0
-214 215 222 0
216 -217 223 0
-216 -217 -223 0
216 217 -223 0
-216 217 223 0
218 -219 224 0
-218 -219 -224 0
218 219 -224 0
-218 219 224 0
220 -221 225 0
-220 -221 -225 0
220 221 -225 0
-220 221 225 0
222 -223 226 0
-222 -223 -226 0
222 223 -226 0
-222 223 226 0
224 -225 227 0
-224 -225 -227 0
224 225 -227 0
-224 225 227 0
226 227 0
-226 -227 0
5 -6 228 0
-5 -6 -228 0
5 6 -228 0
-5 6 228 0
8 -11 229 0
-8 -11 -229 0
8 11 -229 0
-8 11 229 0
-12 -13 230 0
12 -13 -230 0
-12 13 -230 0
12 13 230 0
-15 18 231 0
15 18 -231 0
-15 -18 -231 0
15 -18 231 0
-19 -21 232 0
19 -21 -232 0
-19 21 -232 0
19 21 232 0
-23 28 233 0
23 28 -233 0
-23 -28 -233 0
23 -28 233 0
-30 -31 234 0
30 -31 -234 0
-30 31 -234 0
30 31 234 0
-33 -34 235 0
33 -34 -235 0
-33 34 -235 0
33 34 235 0
-38 -40 236 0
38 -40 -236 0
-38 40 -236 0
38 40 236 0
41 -42 237 0
-41 -42 -237 0
41 42 -237 0
-41 42 237 0
43 47 238 0
-43 47 -238 0
43 -47 -238 0
-43 -47 238 0
227 -228 239 0
-227 -228 -239 0
227 228 -239 0
-227 228 239 0
229 -230 240 0
-229 -230 -240 0
229 230 -240 0
-229 230 240 0
231 -232 241 0
-231 -232 -241 0
231 232 -241 0
-231 232 241 0
233 -234 242 0
-233 -234 -242 0
233 234 -242 0
-233 234 242 0
235 -236 243 0
-235 -236 -243 0
235 236 -243 0
-235 236 243 0
237 -238 244 0
-237 -238 -244 0
237 238 -244 0
-237 238 244 0
239 -240 245 0
-239 -240 -245 0
239 240 -245 0
-239 240 245 0
241 -242 246 0
-241 -242 -246 0
241 242 -246 0
-241 242 246 0
243 -244 247 0
-243 -244 -247 0
243 244 -247 0
-243 244 247 0
-245 -246 247 0
245 -246 -247 0
-245 246 -247 0
245 246 247 0
-3 -6 248 0
3 -6 -248 0
-3 6 -248 0
3 6 248 0
-10 11 249 0
10 11 -249 0
-10 -11 -249 0
10 -11 249 0
12 13 250 0
-12 13 -250 0
12 -13 -250 0
-12 -13 250 0
14 19 251 0
-14 19 -251 0
14 -19 -251 0
-14 -19 251 0
-20 22 252 0
20 22 -252 0
-20 -22 -252 0
20 -22 252 0
-23 25 253 0
23 25 -253 0
-23 -25 -253 0
23 -25 253 0
29 32 254 0
-29 32 -254 0
29 -32 -254 0
-29 -32 254 0
-33 34 255 0
33 34 -255 0
-33 -34 -255 0
33 -34 255 0
35 -36 256 0
-35 -36 -256 0
35 36 -256 0
-35 36 256 0
37 -40 257 0
-37 -40 -257 0
37 40 -257 0
-37 40 257 0
-42 -43 258 0
42 -43 -258 0
-42 43 -258 0
42 43 258 0
-45 47 259 0
45 47 -259 0
-45 -47 -259 0
45 -47 259 0
48 49 260 0
-48 49 -260 0
48 -49 -260 0
-48 -49 260 0
248 -249 261 0
-248 -249 -261 0
248 249 -261 0
-248 249 261 0
250 -251 262 0
-250 -251 -262 0
250 251 -262 0
-250 251 262 0
252 -253 263 0
-252 -253 -263 0
252 253 -263 0
-252 253 263 0
254 -255 264 0
-254 -255 -264 0
254 255 -264 0
-254 255 264 0
256 -257 265 0
-256 -257 -265 0
256 257 -265 0
-256 257 265 0
258 -259 266 0
-258 -259 -266 0
258 259 -266 0
-258 259 266 0
260 -261 267 0
-260 -261 -267 0
260 261 -267 0
-260 261 267 0
262 -263 268 0
-262 -263 -268 0
262 263 -268 0
-262 263 268 0
264 -265 269 0
-264 -265 -269 0
264 265 -269 0
-264 265 269 0
266 -267 270 0
-266 -267 -270 0
266 267 -270 0
-266 267 270 0
268 -269 271 0
-268 -269 -271 0
268 269 -271 0
-268 269 271 0
270 271 0
-270 -271 0
-12 272 0
-24 272 0
-12 -24 273 0
-23 272 0
-12 -23 273 0
-24 -23 273 0
-12 -24 -23 274 0
-22 275 0
-21 275 0
-22 -21 276 0
-20 275 0
-22 -20 276 0
-21 -20 276 0
-22 -21 -20 277 0
-272 278 0
-273 279 0
-274 280 0
-275 278 0
-276 279 0
-277 280 0
-272 -275 279 0
-272 -276 280 0
-272 -277 281 0
-273 -275 280 0
-273 -276 281 0
-273 -277 282 0
-274 -275 281 0
-274 -276 282 0
-274 -277 283 0
-19 284 0
-18 284 0
-19 -18 285 0
-17 284 0
-19 -17 285 0
-18 -17 285 0
-19 -18 -17 286 0
-16 287 0
-15 287 0
-16 -15 288 0
-14 287 0
-16 -14 288 0
-15 -14 288 0
-16 -15 -14 289 0
-284 290 0
-285 291 0
-286 292 0
-287 290 0
-288 291 0
-289 292 0
-284 -287 291 0
-284 -288 292 0
-284 -289 293 0
-285 -287 292 0
-285 -288 293 0
-285 -289 294 0
-286 -287 293 0
-286 -288 294 0
-286 -289 295 0
-278 296 0
-280 297 0
-282 298 0
-290 296 0
-292 297 0
-294 298 0
-278 -290 297 0
-278 -292 298 0
-278 -294 299 0
-280 -290 298 0
-280 -292 299 0
-280 -294 300 0
-282 -290 299 0
-282 -292 300 0
-282 -294 301 0
-279 302 0
-281 303 0
-283 304 0
-291 302 0
-293 303 0
-295 304 0
-279 -291 303 0
-279 -293 304 0
-279 -295 305 0
-281 -291 304 0
-281 -293 305 0
-281 -295 306 0
-283 -291 305 0
-283 -293 306 0
-283 -295 307 0
-297 308 0
-302 308 0
-297 -302 309 0
-298 310 0
-303 310 0
-298 -303 311 0
-299 312 0
-304 312 0
-299 -304 313 0
-300 314 0
-305 314 0
-300 -305 315 0
-301 316 0
-306 316 0
-301 -306 317 0
-13 318 0
-25 318 0
-13 -25 319 0
-11 318 0
-13 -11 319 0
-25 -11 319 0
-13 -25 -11 320 0
-10 321 0
-9 321 0
-10 -9 322 0
-8 321 0
-10 -8 322 0
-9 -8 322 0
-10 -9 -8 323 0
-318 324 0
-319 325 0
-320 326 0
-321 324 0
-322 325 0
-323 326 0
-318 -321 325 0
-318 -322 326 0
-318 -323 327 0
-319 -321 326 0
-319 -322 327 0
-319 -323 328 0
-320 -321 327 0
-320 -322 328 0
-320 -323 329 0
-7 330 0
-6 330 0
-7 -6 331 0
-5 330 0
-7 -5 331 0
-6 -5 331 0
-7 -6 -5 332 0
-4 333 0
-3 333 0
-4 -3 334 0
-2 333 0
-4 -2 334 0
-3 -2 334 0
-4 -3 -2 335 0
-330 336 0
-331 337 0
-332 338 0
-333 336 0
-334 337 0
-335 338 0
-330 -333 337 0
-330 -334 338 0
-330 -335 339 0
-331 -333 338 0
-331 -334 339 0
-331 -335 340 0
-332 -333 339 0
-332 -334 340 0
-332 -335 341 0
-324 342 0
-326 343 0
-328 344 0
-336 342 0
-338 343 0
-340 344 0
-324 -336 343 0
-324 -338 344 0
-324 -340 345 0
-326 -336 344 0
-326 -338 345 0
-326 -340 346 0
-328 -336 345 0
-328 -338 346 0
-328 -340 347 0
-325 348 0
-327 349 0
-329 350 0
-337 348 0
-339 349 0
-341 350 0
-325 -337 349 0
-325 -339 350 0
-325 -341 351 0
-327 -337 350 0
-327 -339 351 0
-327 -341 352 0
-329 -337 351 0
-329 -339 352 0
-329 -341 353 0
-343 354 0
-348 354 0
-343 -348 355 0
-344 356 0
-349 356 0
-344 -349 357 0
-345 358 0
-350 358 0
-345 -350 359 0
-346 360 0
-351 360 0
-346 -351 361 0
-347 362 0
-352 362 0
-347 -352 363 0
-1 364 0
-37 364 0
-1 -37 365 0
-49 364 0
-1 -49 365 0
-37 -49 365 0
-1 -37 -49 366 0
-48 367 0
-47 367 0
-48 -47 368 0
-46 367 0
-48 -46 368 0
-47 -46 368 0
-48 -47 -46 369 0
-364 370 0
-365 371 0
-366 372 0
-367 370 0
-368 371 0
-369 372 0
-364 -367 371 0
-364 -368 372 0
-364 -369 373 0
-365 -367 372 0
-365 -368 373 0
-365 -369 374 0
-366 -367 373 0
-366 -368 374 0
-366 -369 375 0
-45 376 0
-44 376 0
-45 -44 377 0
-43 376 0
-45 -43 377 0
-44 -43 377 0
-45 -44 -43 378 0
-42 379 0
-41 379 0
-42 -41 380 0
-40 379 0
-42 -40 380 0
-41 -40 380 0
-42 -41 -40 381 0
-376 382 0
-377 383 0
-378 384 0
-379 382 0
-380 383 0
-381 384 0
-376 -379 383 0
-376 -380 384 0
-376 -381 385 0
-377 -379 384 0
-377 -380 385 0
-377 -381 386 0
-378 -379 385 0
-378 -380 386 0
-378 -381 387 0
-370 388 0
-372 389 0
-374 390 0
-382 388 0
-384 389 0
-386 390 0
-370 -382 389 0
-370 -384 390 0
-370 -386 391 0
-372 -382 390 0
-372 -384 391 0
-372 -386 392 0
-374 -382 391 0
-374 -384 392 0
-374 -386 393 0
-371 394 0
-373 395 0
-375 396 0
-383 394 0
-385 395 0
-387 396 0
-371 -383 395 0
-371 -385 396 0
-371 -387 397 0
-373 -383 396 0
-373 -385 397 0
-373 -387 398 0
-375 -383 397 0
-375 -385 398 0
-375 -387 399 0
-389 400 0
-394 400 0
-389 -394 401 0
-390 402 0
-395 402 0
-390 -395 403 0
-391 404 0
-396 404 0
-391 -396 405 0
-392 406 0
-397 406 0
-392 -397 407 0
-393 408 0
-398 408 0
-393 -398 409 0
-39 410 0
-38 410 0
-39 -38 411 0
-50 410 0
-39 -50 411 0
-38 -50 411 0
-39 -38 -50 412 0
-36 413 0
-35 413 0
-36 -35 414 0
-34 413 0
-36 -34 414 0
-35 -34 414 0
-36 -35 -34 415 0
-410 416 0
-411 417 0
-412 418 0
-413 416 0
-414 417 0
-415 418 0
-410 -413 417 0
-410 -414 418 0
-410 -415 419 0
-411 -413 418 0
-411 -414 419 0
-411 -415 420 0
-412 -413 419 0
-412 -414 420 0
-412 -415 421 0
-33 422 0
-32 422 0
-33 -32 423 0
-31 422 0
-33 -31 423 0
-32 -31 423 0
-33 -32 -31 424 0
-30 425 0
-29 425 0
-30 -29 426 0
-28 427 0
-27 427 0
-28 -27 428 0
-26 427 0
-28 -26 428 0
-27 -26 428 0
-28 -27 -26 429 0
-425 430 0
-426 431 0
-427 430 0
-428 431 0
-429 432 0
-425 -427 431 0
-425 -428 432 0
-425 -429 433 0
-426 -427 432 0
-426 -428 433 0
-426 -429 434 0
-422 435 0
-423 436 0
-424 437 0
-430 435 0
-431 436 0
-432 437 0
-433 438 0
-434 439 0
-422 -430 436 0
-422 -431 437 0
-422 -432 438 0
-422 -433 439 0
-422 -434 440 0
-423 -430 437 0
-423 -431 438 0
-423 -432 439 0
-423 -433 440 0
-423 -434 441 0
-424 -430 438 0
-424 -431 439 0
-424 -432 440 0
-424 -433 441 0
-424 -434 442 0
-416 443 0
-418 444 0
-420 445 0
-435 443 0
-437 444 0
-439 445 0
-441 446 0
-416 -435 444 0
-416 -437 445 0
-416 -439 446 0
-416 -441 447 0
-418 -435 445 0
-418 -437 446 0
-418 -439 447 0
-418 -441 448 0
-420 -435 446 0
-420 -437 447 0
-420 -439 448 0
-420 -441 449 0
-417 450 0
-419 451 0
-421 452 0
-436 450 0
-438 451 0
-440 452 0
-442 453 0
-417 -436 451 0
-417 -438 452 0
-417 -440 453 0
-417 -442 454 0
-419 -436 452 0
-419 -438 453 0
-419 -440 454 0
-419 -442 455 0
-421 -436 453 0
-421 -438 454 0
-421 -440 455 0
-421 -442 456 0
-444 457 0
-450 457 0
-444 -450 458 0
-445 459 0
-451 459 0
-445 -451 460 0
-446 461 0
-452 461 0
-446 -452 462 0
-447 463 0
-453 463 0
-447 -453 464 0
-448 465 0
-454 465 0
-448 -454 466 0
-449 467 0
-455 467 0
-449 -455 468 0
-388 469 0
-403 470 0
-407 471 0
-443 469 0
-460 470 0
-464 471 0
-468 472 0
-388 -443 470 0
-388 -460 471 0
-388 -464 472 0
-388 -468 473 0
-403 -443 471 0
-403 -460 472 0
-403 -464 473 0
-407 -443 472 0
-407 -460 473 0
-401 474 0
-405 475 0
-409 476 0
-458 474 0
-462 475 0
-466 476 0
-401 -458 475 0
-401 -462 476 0
-401 -466 477 0
-405 -458 476 0
-405 -462 477 0
-409 -458 477 0
-470 478 0
-474 478 0
-470 -474 479 0
-471 480 0
-475 480 0
-471 -475 481 0
-472 482 0
-476 482 0
-472 -476 483 0
-473 484 0
-477 484 0
-473 -477 485 0
-400 486 0
-404 487 0
-408 488 0
-457 486 0
-461 487 0
-465 488 0
-456 489 0
-400 -457 487 0
-400 -461 488 0
-400 -465 489 0
-400 -456 490 0
-404 -457 488 0
-404 -461 489 0
-404 -465 490 0
-408 -457 489 0
-408 -461 490 0
-402 491 0
-406 492 0
-399 493 0
-459 491 0
-463 492 0
-467 493 0
-402 -459 492 0
-402 -463 493 0
-402 -467 494 0
-406 -459 493 0
-406 -463 494 0
-399 -459 494 0
-487 495 0
-491 495 0
-487 -491 496 0
-488 497 0
-492 497 0
-488 -492 498 0
-489 499 0
-493 499 0
-489 -493 500 0
-490 501 0
-494 501 0
-478 502 0
-486 502 0
-478 -486 503 0
-479 504 0
-495 504 0
-479 -495 505 0
-480 506 0
-496 506 0
-480 -496 507 0
-481 508 0
-497 508 0
-481 -497 509 0
-482 510 0
-498 510 0
-482 -498 511 0
-483 512 0
-499 512 0
-483 -499 513 0
-484 514 0
-500 514 0
-484 -500 515 0
-485 516 0
-501 516 0
-342 517 0
-357 518 0
-361 519 0
-469 517 0
-505 518 0
-509 519 0
-513 520 0
-342 -469 518 0
-342 -505 519 0
-342 -509 520 0
-342 -513 521 0
-357 -469 519 0
-357 -505 520 0
-357 -509 521 0
-361 -469 520 0
-361 -505 521 0
-355 522 0
-359 523 0
-363 524 0
-503 522 0
-507 523 0
-511 524 0
-515 525 0
-355 -503 523 0
-355 -507 524 0
-355 -511 525 0
-359 -503 524 0
-359 -507 525 0
-363 -503 525 0
-518 526 0
-522 526 0
-518 -522 527 0
-519 528 0
-523 528 0
-519 -523 529 0
-520 530 0
-524 530 0
-520 -524 531 0
-521 532 0
-525 532 0
-521 -525 533 0
-354 534 0
-358 535 0
-362 536 0
-502 534 0
-506 535 0
-510 536 0
-514 537 0
-354 -502 535 0
-354 -506 536 0
-354 -510 537 0
-354 -514 538 0
-358 -502 536 0
-358 -506 537 0
-358 -510 538 0
-362 -502 537 0
-362 -506 538 0
-356 539 0
-360 540 0
-353 541 0
-504 539 0
-508 540 0
-512 541 0
-516 542 0
-356 -504 540 0
-356 -508 541 0
-356 -512 542 0
-360 -504 541 0
-360 -508 542 0
-353 -504 542 0
-535 543 0
-539 543 0
-535 -539 544 0
-536 545 0
-540 545 0
-536 -540 546 0
-537 547 0
-541 547 0
-537 -541 548 0
-538 549 0
-542 549 0
-526 550 0
-534 550 0
-526 -534 551 0
-527 552 0
-543 552 0
-527 -543 553 0
-528 554 0
-544 554 0
-528 -544 555 0
-529 556 0
-545 556 0
-529 -545 557 0
-530 558 0
-546 558 0
-530 -546 559 0
-531 560 0
-547 560 0
-531 -547 561 0
-532 562 0
-548 562 0
-532 -548 563 0
-533 564 0
-549 564 0
-296 565 0
-311 566 0
-315 567 0
-517 565 0
-553 566 0
-557 567 0
-561 568 0
-296 -517 566 0
-296 -553 567 0
-296 -557 568 0
-296 -561 569 0
-311 -517 567 0
-311 -553 568 0
-311 -557 569 0
-315 -517 568 0
-315 -553 569 0
-309 570 0
-313 571 0
-317 572 0
-551 570 0
-555 571 0
-559 572 0
-563 573 0
-309 -551 571 0
-309 -555 572 0
-309 -559 573 0
-313 -551 572 0
-313 -555 573 0
-317 -551 573 0
-566 574 0
-570 574 0
-566 -570 575 0
-567 576 0
-571 576 0
-567 -571 577 0
-568 578 0
-572 578 0
-568 -572 579 0
-569 580 0
-573 580 0
-569 -573 581 0
-308 582 0
-312 583 0
-316 584 0
-550 582 0
-554 583 0
-558 584 0
-562 585 0
-308 -550 583 0
-308 -554 584 0
-308 -558 585 0
-308 -562 586 0
-312 -550 584 0
-312 -554 585 0
-312 -558 586 0
-316 -550 585 0
-316 -554 586 0
-310 587 0
-314 588 0
-307 589 0
-552 587 0
-556 588 0
-560 589 0
-564 590 0
-310 -552 588 0
-310 -556 589 0
-310 -560 590 0
-314 -552 589 0
-314 -556 590 0
-307 -552 590 0
-583 591 0
-587 591 0
-583 -587 592 0
-584 593 0
-588 593 0
-584 -588 594 0
-585 595 0
-589 595 0
-585 -589 596 0
-586 597 0
-590 597 0
-574 598 0
-582 598 0
-574 -582 599 0
-575 600 0
-591 600 0
-575 -591 601 0
-576 602 0
-592 602 0
-576 -592 603 0
-577 604 0
-593 604 0
-577 -593 605 0
-578 606 0
-594 606 0
-578 -594 607 0
-579 608 0
-595 608 0
-579 -595 609 0
-580 610 0
-596 610 0
-580 -596 611 0
-581 612 0
-597 612 0
-612 0
